* Signature: 0x24c2bd4911c5354e
NAME lp_typeD_013
OBJSENSE MAX
ROWS
 N  OBJ
 L  c0      
 G  c1      
 G  c2      
 L  c_key_upper
 G  c_key_lower
 G  _chain_constr_1
 G  _chain_constr_2
 G  _chain_constr_3
 G  _chain_constr_4
 G  _chain_cycle
COLUMNS
    x0        OBJ       7.8628021644087565e-01
    x0        c0        1.68418177946285
    x0        c1        1.9832874624052397e+00
    x0        c2        1.2288159136210492e+00
    x0        c_key_upper  1.2222417567116541e+00
    x0        c_key_lower  1.2222417567116541e+00
    x1        OBJ       1.2709791397273857e+00
    x1        c0        1.9087443729818021e+00
    x1        c1        6.8693044187204766e-01
    x1        c2        1.5824445273963685e+00
    x1        c_key_upper  1.5524574359653007e+00
    x1        c_key_lower  1.5524574359653007e+00
    x2        OBJ       1.3743824024535809e+00
    x2        c0        9.5051141627681068e-01
    x2        c1        8.3758167578795706e-01
    x2        c2        1.3288985495505117e+00
    x2        c_key_upper  1.1527591616743709e+00
    x2        c_key_lower  1.1527591616743709e+00
    x3        OBJ       9.0745859642048621e-01
    x3        c0        1.1413996769812631e+00
    x3        c1        1.9411725577581191e+00
    x3        c2        1.5602745158058891e+00
    x3        c_key_upper  1.0246865904279339e+00
    x3        c_key_lower  1.0246865904279339e+00
    x4        OBJ       7.4800914040022293e-01
    x4        c0        1.1222727887618733e+00
    x4        c1        1.6374356328009338e+00
    x4        c2        1.3425755289948704e+00
    x4        c_key_upper  1.5703550456634665e+00
    x4        c_key_lower  1.5703550456634665e+00
    x5        OBJ       6.0942583104464065e-01
    x5        c0        1.4922683797384297e+00
    x5        c1        8.2253264309596441e-01
    x5        c2        1.9404583637012451e+00
    x5        c_key_upper  1.6840479073914687e+00
    x5        c_key_lower  1.6840479073914687e+00
    x6        OBJ       8.1757623199988483e-01
    x6        c0        1.2441129687392865e+00
    x6        c1        1.1851777192396524e+00
    x6        c2        1.2766296127813335e+00
    x6        c_key_upper  1.7559572780468484e+00
    x6        c_key_lower  1.7559572780468484e+00
    x7        OBJ       1.1588686666145498e+00
    x7        c0        1.99876393417403
    x7        c1        1.6843561274350796e+00
    x7        c2        1.3673890463042495e+00
    x7        c_key_upper  1.5339965726609437e+00
    x7        c_key_lower  1.5339965726609437e+00
    _chain_var_0  _chain_constr_1  -1
    _chain_var_0  _chain_cycle  1
    _chain_var_1  _chain_constr_1  1
    _chain_var_1  _chain_constr_2  -1
    _chain_var_2  _chain_constr_2  1
    _chain_var_2  _chain_constr_3  -1
    _chain_var_3  _chain_constr_3  1
    _chain_var_3  _chain_constr_4  -1
    _chain_var_4  _chain_constr_4  1
    _chain_var_4  _chain_cycle  -1
RHS
    RHS1      c0        5.5179946506594753e+01
    RHS1      c1        1.2045124524961185e+01
    RHS1      c2        1.7758722862730330e+01
    RHS1      c_key_upper  5.7482508742709932e+01
    RHS1      c_key_lower  2.8741254371354966e+01
    RHS1      _chain_constr_1  10
    RHS1      _chain_constr_2  10
    RHS1      _chain_constr_3  10
    RHS1      _chain_constr_4  10
    RHS1      _chain_cycle  10
BOUNDS
 UP BND1      x0        10
 UP BND1      x1        10
 UP BND1      x2        10
 UP BND1      x3        10
 UP BND1      x4        10
 UP BND1      x5        10
 UP BND1      x6        10
 UP BND1      x7        10
 UP BND1      _chain_var_0  100
 UP BND1      _chain_var_1  100
 UP BND1      _chain_var_2  100
 UP BND1      _chain_var_3  100
 UP BND1      _chain_var_4  100
ENDATA
